Chem3D_File
1.0
        1.0000000000         0.0000000000         0.0000000000
        0.0000000000         1.0000000000         0.0000000000
        0.0000000000         0.0000000000         1.0000000000
   Al    O
   24   22
Cartesian
     0.423874825         0.543950379         0.761468232
     0.576125145         0.456048965         0.654127717
     0.423874825         0.368147552         0.622936428
     0.271625102         0.631852448         0.622936428
     0.728374898         0.368147552         0.622936428
     0.576124549         0.631852448         0.622936428
     0.423874825         0.543950379         0.515595973
     0.423874825         0.368147552         0.207341135
     0.271625102         0.631852448         0.207341135
     0.728374898         0.368147552         0.207341135
     0.576124549         0.631852448         0.207341135
     0.423874825         0.543950379         0.099999964
     0.576125145         0.456048965         0.899999976
     0.423874825         0.368147552         0.792659461
     0.271625102         0.631852448         0.792659461
     0.728374898         0.368147552         0.792659461
     0.576124549         0.631852448         0.792659461
     0.576125145         0.456048965         0.484404683
     0.423874825         0.368147552         0.377063513
     0.271625102         0.631852448         0.377063513
     0.728374898         0.368147552         0.377063513
     0.576124549         0.631852448         0.377063513
     0.423874825         0.543950379         0.345872283
     0.576125145         0.456048965         0.238532394
     0.482903749         0.456048965         0.569265604
     0.529513836         0.551120222         0.707797945
     0.622735262         0.536781251         0.569265604
     0.622735262         0.375317335         0.569265604
     0.377264112         0.448879778         0.707797945
     0.681764185         0.448879778         0.707797945
     0.517096281         0.368147552         0.707797945
     0.364846528         0.631852448         0.707797945
     0.330653399         0.543950379         0.846330404
     0.529513836         0.375317335         0.153670222
     0.470485538         0.624682665         0.846330404
     0.470485538         0.463218778         0.846330404
     0.529514492         0.536781251         0.153670222
     0.669345975         0.456048965         0.153670222
     0.635153472         0.368147552         0.292201996
     0.482903123         0.631852448         0.292201996
     0.377264112         0.463218778         0.430734426
     0.470485538         0.448879778         0.292201996
     0.318235815         0.551120222         0.292201996
     0.622735262         0.551120222         0.292201996
     0.377264112         0.624682665         0.430734426
     0.517096281         0.543950379         0.430734426
