Al O Nb
1.0
        1.0000000000         0.0000000000         0.0000000000
        0.0000000000         1.0000000000         0.0000000000
        0.0000000000         0.0000000000         1.0000000000
   Al    O   Nb
   24   22   19
Direct
     0.462348700         0.521737754         0.427160352
     0.537651300         0.478261948         0.374070019
     0.462348700         0.434786141         0.358642936
     0.387046427         0.565213859         0.358642936
     0.612953544         0.434786141         0.358642936
     0.537651002         0.565213859         0.358642936
     0.462348700         0.521737754         0.305552602
     0.462348700         0.434786141         0.153090656
     0.387046427         0.565213859         0.153090656
     0.612953544         0.434786141         0.153090656
     0.537651002         0.565213859         0.153090656
     0.462348700         0.521737754         0.100000024
     0.537651300         0.478261948         0.495677769
     0.462348700         0.434786141         0.442587435
     0.387046427         0.565213859         0.442587435
     0.612953544         0.434786141         0.442587435
     0.537651002         0.565213859         0.442587435
     0.537651300         0.478261948         0.290125489
     0.462348700         0.434786141         0.237034887
     0.387046427         0.565213859         0.237034887
     0.612953544         0.434786141         0.237034887
     0.537651002         0.565213859         0.237034887
     0.462348700         0.521737754         0.221607745
     0.537651300         0.478261948         0.168517768
     0.491544247         0.478261948         0.332097471
     0.514597476         0.525283933         0.400615185
     0.560704529         0.518191874         0.332097471
     0.560704529         0.438332319         0.332097471
     0.439295173         0.474716097         0.400615185
     0.589900017         0.474716097         0.400615185
     0.508455753         0.434786141         0.400615185
     0.433153480         0.565213859         0.400615185
     0.416241646         0.521737754         0.469132930
     0.514597476         0.438332319         0.126545191
     0.485402226         0.561667681         0.469132930
     0.485402226         0.481808096         0.469132930
     0.514597774         0.518191874         0.126545191
     0.583758056         0.478261948         0.126545191
     0.566846490         0.434786141         0.195062578
     0.491543919         0.565213859         0.195062578
     0.439295173         0.481808096         0.263580322
     0.485402226         0.474716097         0.195062578
     0.410099953         0.525283933         0.195062578
     0.560704529         0.525283933         0.195062578
     0.439295173         0.561667681         0.263580322
     0.508455753         0.521737754         0.263580322
     0.462348700         0.434786141         0.589702606
     0.462348700         0.434786141         0.693135023
     0.462348700         0.434786141         0.796567500
     0.462348700         0.434786141         0.899999976
     0.462348700         0.538231134         0.589702606
     0.462348700         0.538231134         0.693135023
     0.462348700         0.538231134         0.796567500
     0.462348700         0.538231134         0.899999976
     0.565793693         0.434786141         0.589702606
     0.565793693         0.434786141         0.693135023
     0.565793693         0.434786141         0.796567500
     0.565793693         0.434786141         0.899999976
     0.565793693         0.538231134         0.589702606
     0.565793693         0.538231134         0.693135023
     0.565793693         0.538231134         0.796567500
     0.565793693         0.538231134         0.899999976
     0.514071226         0.486508638         0.641418815
     0.514071226         0.486508638         0.744851291
     0.514071226         0.486508638         0.848283768
