al2 n2
1.0
        3.1285879612         0.0000000000         0.0000000000
       -1.5642939806         2.7094366524         0.0000000000
        0.0000000000         0.0000000000         5.0169548988
   Al    N
    2    2
Cartesian
     1.564295519         0.903144609         2.504900407
    -0.000001585         1.806291963         5.013377856
     1.564295519         0.903144609         4.418497330
    -0.000001585         1.806291963         1.910019880
