Nb
1.0
        3.3004000187         0.0000000000         0.0000000000
        0.0000000000         3.3004000187         0.0000000000
        0.0000000000         0.0000000000         3.3004000187
   Nb
    2
Cartesian
     0.000000000         0.000000000         0.000000000
     1.650200009         1.650200009         1.650200009
