al2 n2
1.0
        3.1285881996         0.0000000000         0.0000000000
       -1.5642940998         2.7094368588         0.0000000000
        0.0000000000         0.0000000000         5.0169553757
   Al    N
    2    2
Direct
     0.666666995         0.333333000         0.499287019
     0.333333011         0.666667013         0.999286971
     0.666666995         0.333333000         0.880712949
     0.333333011         0.666667013         0.380712996
