Al N Nb
1.0
        1.0000000000         0.0000000000         0.0000000000
        0.0000000000         1.0000000000         0.0000000000
        0.0000000000         0.0000000000         1.0000000000
   Al    N   Nb
   23   52   19
Cartesian
     0.500000060         0.448299319         0.260625064
     0.500000060         0.448299319         0.404223174
     0.455225974         0.525850296         0.117026955
     0.455225974         0.525850296         0.260625064
     0.455225974         0.525850296         0.404223174
     0.589548230         0.448299319         0.117026955
     0.589548230         0.448299319         0.260625064
     0.589548230         0.448299319         0.404223174
     0.544774175         0.525850296         0.117026955
     0.544774175         0.525850296         0.260625064
     0.544774175         0.525850296         0.404223174
     0.455225855         0.474149674         0.188826025
     0.455225855         0.474149674         0.332424104
     0.455225855         0.474149674         0.476022214
     0.410451740         0.551700711         0.188826025
     0.410451740         0.551700711         0.332424104
     0.410451740         0.551700711         0.476022214
     0.544774055         0.474149674         0.188826025
     0.544774055         0.474149674         0.332424104
     0.544774055         0.474149674         0.476022214
     0.499999970         0.551700711         0.188826025
     0.499999970         0.551700711         0.332424104
     0.499999970         0.551700711         0.476022214
     0.500000060         0.448299319         0.171799034
     0.500000060         0.448299319         0.315397114
     0.500000060         0.448299319         0.458995223
     0.455225974         0.525850296         0.171799034
     0.455225974         0.525850296         0.315397114
     0.455225974         0.525850296         0.458995223
     0.589548230         0.448299319         0.171799034
     0.589548230         0.448299319         0.315397114
     0.589548230         0.448299319         0.458995223
     0.544774175         0.525850296         0.171799034
     0.544774175         0.525850296         0.315397114
     0.544774175         0.525850296         0.458995223
     0.455225855         0.474149674         0.099999964
     0.455225855         0.474149674         0.243598044
     0.455225855         0.474149674         0.387196153
     0.410451740         0.551700711         0.099999964
     0.410451740         0.551700711         0.243598044
     0.410451740         0.551700711         0.387196153
     0.544774055         0.474149674         0.099999964
     0.544774055         0.474149674         0.243598044
     0.544774055         0.474149674         0.387196153
     0.499999970         0.551700711         0.099999964
     0.499999970         0.551700711         0.243598044
     0.499999970         0.551700711         0.387196153
     0.499999970         0.396598637         0.099999964
     0.499999970         0.396598637         0.243598044
     0.499999970         0.396598637         0.387196153
     0.589548171         0.396598637         0.099999964
     0.634322286         0.474149674         0.099999964
     0.589548171         0.396598637         0.243598044
     0.634322286         0.474149674         0.243598044
     0.589548171         0.396598637         0.387196153
     0.634322286         0.474149674         0.387196153
     0.589548171         0.551700711         0.099999964
     0.589548171         0.551700711         0.243598044
     0.589548171         0.551700711         0.387196153
     0.410451889         0.448299319         0.171799034
     0.410451889         0.448299319         0.315397114
     0.410451889         0.448299319         0.458995223
     0.455225855         0.474149674         0.530794263
     0.365677714         0.525850296         0.171799034
     0.410451889         0.603401363         0.171799034
     0.365677714         0.525850296         0.315397114
     0.410451889         0.603401363         0.315397114
     0.365677714         0.525850296         0.458995223
     0.410451740         0.551700711         0.530794263
     0.410451889         0.603401363         0.458995223
     0.544774055         0.474149674         0.530794263
     0.500000060         0.603401363         0.171799034
     0.500000060         0.603401363         0.315397114
     0.499999970         0.551700711         0.530794263
     0.500000060         0.603401363         0.458995223
     0.455225915         0.422448993         0.616636634
     0.455225915         0.422448993         0.711091101
     0.455225915         0.422448993         0.805545568
     0.455225915         0.422448993         0.899999976
     0.455225915         0.516914904         0.616636634
     0.455225915         0.516914904         0.711091101
     0.455225915         0.516914904         0.805545568
     0.455225915         0.516914904         0.899999976
     0.549691796         0.422448993         0.616636634
     0.549691796         0.422448993         0.711091101
     0.549691796         0.422448993         0.805545568
     0.549691796         0.422448993         0.899999976
     0.549691796         0.516914904         0.616636634
     0.549691796         0.516914904         0.711091101
     0.549691796         0.516914904         0.805545568
     0.549691796         0.516914904         0.899999976
     0.502458870         0.469681919         0.663863897
     0.502458870         0.469681919         0.758318305
     0.502458870         0.469681919         0.852772713
